&CONTROL
    calculation ='nscf'
    restart_mode='from_scratch',
    prefix='FEC',
    pseudo_dir = '/soft/espresso/pslibrary.1.0.0/pbe/PSEUDOPOTENTIALS',
    outdir='.',
    max_seconds=597600,
    nstep=1000,
/
&SYSTEM
   ntyp             = 6,
   nat              = 123,
   ibrav            = 0,
   ecutwfc=75,
   ecutrho=488,
  occupations='tetrahedra',
!  smearing='gauss',
!  degauss=0.01d0,
  nosym=.true.,
/
&ELECTRONS
  electron_maxstep=400,
  conv_thr=1d-06,
  mixing_mode='local-TF',
/
&IONS
/
&CELL
/

ATOMIC_SPECIES
P 30.973761998 P.pbe-nl-kjpaw_psl.1.0.0.UPF
F 18.998403163 F.pbe-n-kjpaw_psl.1.0.0.UPF
Li 6.94 Li.pbe-sl-kjpaw_psl.1.0.0.UPF
C 12.011 C.pbe-n-kjpaw_psl.1.0.0.UPF
O 15.999 O.pbe-nl-kjpaw_psl.1.0.0.UPF
H 1.008 H.pbe-kjpaw_psl.1.0.0.UPF

K_POINTS automatic
6 6 6 0 0 0

CELL_PARAMETERS angstrom
11.50000000000000 0.00000000000000 0.00000000000000
0.00000000000000 11.50000000000000 0.00000000000000
0.00000000000000 0.00000000000000 11.50000000000000

ATOMIC_POSITIONS angstrom
P 6.0898510000 5.7583600000 5.6942960000 
F 5.1252940000 5.4419620000 7.0665290000 
F 7.1423340000 6.5068990000 6.8189150000 
F 6.8466270000 4.3736040000 5.8927090000 
F 5.2939110000 7.2671260000 5.7012450000 
F 7.0163460000 6.2335240000 4.4910350000 
F 4.9650970000 5.1504810000 4.7463860000 
Li 5.5762200000 7.2179460000 7.5977710000 
F 6.7138160000 5.0604790000 0.7551520000 
O 5.5774820000 6.5806160000 1.9421600000 
O 6.9648700000 7.9486030000 0.8163880000 
O 4.7343010000 8.4708380000 0.9511620000 
C 6.8152810000 5.9070650000 1.8108530000 
C 7.7808530000 7.0021110000 1.4970530000 
C 5.6727930000 7.7331220000 1.2116760000 
H 7.0694490000 5.3341300000 2.7061460000 
H 8.1799840000 7.4826900000 2.3958010000 
H 8.5998060000 6.6752270000 0.8513800000 
F 6.1888830000 3.6302510000 7.6439810000 
O 4.4474030000 2.4257460000 8.3702550000 
O 5.9272540000 0.7670560000 8.0204190000 
O 4.7134440000 0.7999080000 9.9677040000 
C 5.2137340000 2.7800700000 7.2343640000 
C 5.8150760000 1.4850810000 6.7969660000 
C 5.0037510000 1.2873890000 8.8856020000 
H 4.6099530000 3.2708270000 6.4668950000 
H 5.1572550000 0.9185680000 6.1303740000 
H 6.7995220000 1.6065290000 6.3381110000 
F 10.7540710000 8.7966850000 5.9136710000 
O 9.6717320000 7.0910740000 4.9490510000 
O 10.7590340000 7.9044820000 3.1546870000 
O 10.7579950000 5.6421420000 3.5395840000 
C 9.7181600000 8.4986350000 5.0893150000 
C 10.0099710000 8.9811840000 3.7065930000 
C 10.4275290000 6.7757790000 3.8534590000 
H 8.7951410000 8.9008860000 5.5143270000 
H 9.1047590000 9.1082200000 3.1045430000 
H 10.6017460000 9.8998980000 3.6925580000 
F 0.7564130000 0.7379340000 10.0582220000 
O 1.8292060000 2.5977470000 10.6916820000 
O 0.8113920000 3.3680000000 8.8384790000 
O 0.7530150000 4.6234080000 10.7586020000 
C 1.8088970000 1.5384450000 9.7533190000 
C 1.5672000000 2.2265130000 8.4502180000 
C 1.0985280000 3.6205170000 10.1522270000 
H 2.7277570000 0.9473300000 9.7794880000 
H 2.4917940000 2.5758850000 7.9800330000 
H 0.9958550000 1.6161860000 7.7463030000 
F 2.9155010000 10.6182900000 8.4381820000 
F 1.7512280000 9.8533190000 10.1167690000 
F 0.7395920000 10.7634140000 8.4067950000 
O 1.7483460000 8.8172160000 6.6797920000 
O 1.7445450000 8.0293760000 4.6209040000 
O 1.6099310000 6.5369010000 6.3723600000 
C 1.7038380000 8.6321480000 8.0984860000 
C 1.7740810000 9.9775160000 8.7729280000 
C 1.6927410000 7.6770330000 5.9359070000 
C 1.6956890000 6.9446030000 3.6880730000 
H 2.5530560000 8.0154450000 8.4126890000 
H 0.7698300000 8.1291130000 8.3720370000 
H 1.7448510000 7.3616580000 2.6787150000 
H 0.7557270000 6.3948990000 3.7955650000 
H 2.5519950000 6.2796020000 3.8354740000 
F 6.7277870000 9.5509220000 8.7900890000 
F 6.2074430000 10.7509480000 10.5358120000 
F 4.8800180000 10.7094850000 8.8003250000 
O 4.4713690000 7.9636690000 9.0854820000 
O 3.3818350000 6.1967820000 8.3433570000 
O 3.5718930000 6.4981990000 10.6206860000 
C 4.9734960000 8.7770640000 10.1509300000 
C 5.7005600000 9.9601350000 9.5665120000 
C 3.7865080000 6.8497780000 9.4684770000 
C 2.6395980000 4.9922240000 8.5611140000 
H 5.6609180000 8.1872870000 10.7672350000 
H 4.1388640000 9.1242030000 10.7699030000 
H 2.3789760000 4.5724340000 7.5859180000 
H 1.7170400000 5.2096080000 9.1078220000 
H 3.2495640000 4.2647110000 9.1050620000 
F 0.7529080000 2.3922770000 4.9686450000 
F 2.1727060000 0.7365860000 5.0037160000 
F 1.1074480000 1.2267700000 3.1596340000 
O 2.2543850000 3.7697720000 3.0855280000 
O 2.4606310000 5.6430940000 1.9419150000 
O 4.3458170000 4.7199670000 2.8943390000 
C 2.8060260000 2.7042350000 3.8660700000 
C 1.7025450000 1.7533390000 4.2507080000 
C 3.1440000000 4.7120000000 2.6645010000 
C 3.2477290000 6.7171000000 1.4162900000 
H 3.2713930000 3.1160960000 4.7683010000 
H 3.5630200000 2.1743710000 3.2774710000 
H 2.5834920000 7.3863590000 0.8630830000 
H 4.0068210000 6.3295750000 0.7300970000 
H 3.7135400000 7.2792720000 2.2312720000 
F 9.0319360000 5.6783810000 2.5301980000 
F 8.6632040000 4.4704190000 0.7516500000 
F 10.6563720000 4.5223380000 1.6462330000 
O 9.6944030000 3.4419250000 4.0326810000 
O 10.2234130000 2.6892700000 6.0360240000 
O 8.7037700000 1.4981740000 4.7769850000 
C 8.9703730000 3.3437030000 2.8018050000 
C 9.3350540000 4.5108000000 1.9216270000 
C 9.4621930000 2.4456930000 4.9327220000 
C 10.1036470000 1.7315020000 7.0932050000 
H 7.8947370000 3.3580060000 3.0092150000 
H 9.2300710000 2.4055130000 2.2992110000 
H 10.7604080000 2.0426430000 7.9099120000 
H 10.4190900000 0.7429650000 6.7460040000 
H 9.0740400000 1.7017230000 7.4623050000 
F 8.1967320000 7.1253600000 8.5986740000 
F 10.1364110000 7.7634900000 9.3660080000 
F 8.5446160000 7.1936750000 10.7506340000 
O 8.4731220000 4.6019090000 9.7184300000 
O 7.5923810000 2.5896830000 9.9054330000 
O 9.8615400000 2.7702550000 9.5427870000 
C 9.5917540000 5.4730620000 9.5217690000 
C 9.1161800000 6.9020250000 9.5631530000 
C 8.7561100000 3.2691610000 9.7051740000 
C 7.7050140000 1.1626860000 9.9223760000 
H 10.0507930000 5.2634130000 8.5493760000 
H 10.3291950000 5.3051260000 10.3143740000 
H 6.7087210000 0.7449370000 10.0898350000 
H 8.3610100000 0.8443630000 10.7382170000 
H 8.0804020000 0.8010470000 8.9603400000 

