LLTO-331                                
   1.00000000000000     
    11.6064000000000007    0.0000000000000000    0.0000000000000000
     0.0000000000000000   11.6064000000000007    0.0000000000000000
     0.0000000000000000    0.0000000000000000    7.7462999999999997
   La   Li   Ti   O 
     9     9    18    54
Direct
  0.3346728318003006  0.0059878603478584 -0.0003285893196000
  0.6659146741204828  0.6705835184450966 -0.0002411889689298
 -0.0020802956822635  0.6669954297010463 -0.0002710066107658
  0.3338017449700462  0.6678218354462381 -0.0002865624628976
  0.6655065352720445  0.3371182959727890 -0.0003208369418657
  0.6684147808725927 -0.0036181646071154 -0.0003154721761104
  0.9938306769722042  0.0039491560198957 -0.0001819168138766
  0.3403520495652185  0.3346828597595340 -0.0004370443857750
 -0.0066251339077120  0.3356888117783976 -0.0002830126589822
  0.0010082450947327  0.2154238862234134  0.4996830160498189
  0.5686339424663523  0.3379698111016448  0.4996851773504402
  0.3356445144975833  0.2363489000135139  0.4995892078994434
  0.2359422541730816  0.0000278231980854  0.4997654754985077
  0.0005374619408085  0.8846851074421459  0.4998034080921214
  0.6723199684487103  0.5773665757961108  0.4995457514447856
 -0.0000178357569492  0.5456557629754348  0.4996386500707597
  0.2264848037354651  0.6718185312816254  0.4997526973041952
  0.6679580019264051  0.8919791184201806  0.4997261716361974
  0.1664033510769027  0.1697229318285038  0.2559036664993923
  0.1664219487055116  0.1696995424884904  0.7434325873145021
  0.5024512506560600  0.1640560501882015  0.2590853354960206
  0.8278145843082132  0.1652466124623296  0.2616485140100756
  0.1678108154991694  0.4964181234845421  0.2564649168179305
  0.1680003291409855  0.8346931419416576  0.2543671637363917
  0.4973829119236835  0.5026749144519046  0.2603637718933440
  0.4955536803246324  0.8323897348038569  0.2610280326510115
  0.8313438242626965  0.4983498552191075  0.2595848803297051
  0.8323206105646008  0.8318450765333105  0.2595947891775706
  0.5024473633748733  0.1640279735888691  0.7400928543785563
  0.8278613641561396  0.1652303984854206  0.7376497074306433
  0.1678159475451801  0.4964517764852558  0.7428352234194082
  0.1680167666169424  0.8346870441940816  0.7450386940716104
  0.4974071738686078  0.5026835320327561  0.7388493347977488
  0.4955361614314912  0.8323440642679124  0.7384924496007864
  0.8313343014957486  0.4983680832797184  0.7398020023161082
  0.8323044360026123  0.8318658809673678  0.7398967987108124
  0.1719077498843786  0.1544560106290590 -0.0003308281871898
  0.0049522856189707  0.1782459013962222  0.2488356637692668
  0.1841022685915955  0.0086740129952472  0.2569298805771879
  0.1731612556271791  0.1869319375046607  0.4996737128323477
  0.0049663822886532  0.1782495552231046  0.7505058152258217
  0.1842462778276003  0.0086584619856618  0.7424865695913145
  0.4890515243288755  0.1852121823389537 -0.0003116849359125
  0.8541099346824121  0.1782278124302239 -0.0003370818088332
  0.1611368483861458  0.5282467409458166 -0.0003135337607899
  0.1550988670098159  0.8443841845274485 -0.0002508275089395
  0.5108948557548930  0.4979154004573074 -0.0002443841075068
  0.5249440600877608  0.8371982011033294 -0.0003456435243250
  0.8442373259748891  0.5010856188573380 -0.0003024473437906
  0.8346502100385900  0.8435061045917569 -0.0002634562227952
  0.3382272762653811  0.1888617691818128  0.2503785563743474
  0.6688889530388142  0.1686278189467928  0.2090501178645206
  0.0037004935846284  0.5098889383353208  0.2483449487839302
  0.0048106788178935  0.8484189144398947  0.2485329237251321
  0.3368347107943839  0.5005909760412962  0.2230983934727711
  0.3370526938583593  0.8412661404369756  0.2040083066706479
  0.6719008815379267  0.5225212641313509  0.2382138031526108
  0.6696098500041456  0.8434282333812738  0.2552662390976260
  0.4983220668012782  0.0071851836296872  0.2203712751237266
  0.8375566918424837  0.0074958056281361  0.2215993469131191
  0.1681234414073957  0.3407868358716044  0.2006733483530599
  0.1797361101276285  0.6749450965255540  0.2502248755092098
  0.5194439414148906  0.3421824300139832  0.2491629138794141
  0.4974424427156783  0.6725510155680807  0.2250009861410683
  0.8297855757359269  0.3398680034602950  0.2350571291289802
  0.8414154495177855  0.6751379186074735  0.2181158462819006
  0.5060203787345782  0.1808771611024381  0.4996095694700590
  0.8384602792053141  0.1721529213127303  0.4996741463894343
  0.1694723951543534  0.5096326399969220  0.4996651638458393
  0.1776625377957780  0.8418217993047264  0.4997352040551471
  0.5192064038081767  0.5065757966946181  0.4996651281633950
  0.5003296086590685  0.8458395337068184  0.4997215857429408
  0.8344033145785286  0.5214299641949870  0.4996786999885899
  0.8386624441461874  0.8482365329652020  0.4997328524290051
  0.3382480189233467  0.1888687633417450  0.7489906036838024
  0.6688443057853320  0.1685732006827368  0.7899442078424629
  0.0037039756500837  0.5100441581753257  0.7508763882061994
  0.0048191184531570  0.8483744194474655  0.7510624658622218
  0.3368561471874245  0.5005055775668155  0.7763817615723719
  0.3370569236578527  0.8412275305060786  0.7954105567287599
  0.6718689312618717  0.5225043186130711  0.7611939177289280
  0.6696299851027596  0.8435102570997259  0.7441024238864373
  0.4981823433841159  0.0071714143834568  0.7788106120822236
  0.8376475683250527  0.0074768510268910  0.7779056273002060
  0.1681438440696140  0.3407996363426865  0.7985747107816519
  0.1798654745726850  0.6749434827378819  0.7492459430673417
  0.5193015649899638  0.3421678496745650  0.7504766174268664
  0.4973987367652414  0.6724738099520605  0.7744512577317104
  0.8297812156843583  0.3398689108080565  0.7643447872568189
  0.8413973390756360  0.6751351451581590  0.7814581600306159
