LLTO                                    
   1.00000000000000     
     7.7625492732917154    0.0000000000000000   -0.0034884105806822
     0.0000000000000000    7.7689012979594612    0.0000000000000000
    -0.0033760542890084    0.0000000000000000    7.8504110596325987
   La   Li   Ti   O 
     5     1     8    24
Direct
  0.0237129502534114  0.5000000000000000  0.2419029061837234
  0.4957907069579924  0.5000000000000000  0.7496190237911839
  0.0014774036372106  0.5000000000000000  0.7440338080904818
  0.4996790076388523 -0.0000000000000000  0.2647532531581404
  0.0007542225505261 -0.0000000000000000  0.2477750370664365
  0.7553674853503964 -0.0000000000000000  0.7552633137134211
  0.7439389392554099  0.7488244971761444  0.0035947404049336
  0.2553303552622804  0.2456211793889780  0.5033238335552551
  0.2553303552622804  0.7543788206110219  0.5033238335552551
  0.2539913543620009  0.2441149034076165  0.9935024988648486
  0.2539913543620009  0.7558850965923837  0.9935024988648486
  0.7475225741611022  0.2507688992764200  0.5017012980503534
  0.7475225741611022  0.7492311007235799  0.5017012980503534
  0.7439389392554099  0.2511755028238559  0.0035947404049336
  0.7422684986258602  0.2241580409505029  0.2566629365408303
  0.2811816348505948 -0.0000000000000000  0.0373502040071177
  0.2735430089971710  0.5000000000000000  0.5227033952710980
  0.9992459501134522  0.2257334370043320  0.0290441635848819
  0.7956993329787982  0.5000000000000000  0.0107322046163604
  0.4987610568263401  0.2882292559187340  0.9921443511596263
  0.2476881683091055  0.2565345701385736  0.2566078357799385
  0.7600592685754158  0.7363392030441911  0.7572948439794474
  0.7181103345779004 -0.0000000000000000  0.0021621261695054
  0.2357345480755120  0.7366040100314288  0.7549824318509172
  0.2476881683091055  0.7434654298614263  0.2566078357799385
  0.4983354381219152  0.7846101172744121  0.5121083655647476
  0.2357345480755120  0.2633959899685708  0.7549824318509172
  0.4983354381219152  0.2153898827255878  0.5121083655647476
  0.7843016421807023 -0.0000000000000000  0.5107318396739170
  0.7163120629821680  0.5000000000000000  0.5168561203462936
  0.9961325651916244  0.7040425593213446  0.4885503613946129
  0.7422684986258602  0.7758419590494976  0.2566629365408303
  0.2171548889510068 -0.0000000000000000  0.4761006171342339
  0.9961325651916244  0.2959574406786553  0.4885503613946129
  0.4987610568263401  0.7117707440812662  0.9921443511596263
  0.2077088843332313  0.5000000000000000  0.9941108293173085
  0.7600592685754158  0.2636607969558091  0.7572948439794474
  0.9992459501134522  0.7742665629956678  0.0290441635848819
 
  0.00000000E+00  0.00000000E+00  0.00000000E+00
  0.00000000E+00  0.00000000E+00  0.00000000E+00
  0.00000000E+00  0.00000000E+00  0.00000000E+00
  0.00000000E+00  0.00000000E+00  0.00000000E+00
  0.00000000E+00  0.00000000E+00  0.00000000E+00
  0.00000000E+00  0.00000000E+00  0.00000000E+00
  0.00000000E+00  0.00000000E+00  0.00000000E+00
  0.00000000E+00  0.00000000E+00  0.00000000E+00
  0.00000000E+00  0.00000000E+00  0.00000000E+00
  0.00000000E+00  0.00000000E+00  0.00000000E+00
  0.00000000E+00  0.00000000E+00  0.00000000E+00
  0.00000000E+00  0.00000000E+00  0.00000000E+00
  0.00000000E+00  0.00000000E+00  0.00000000E+00
  0.00000000E+00  0.00000000E+00  0.00000000E+00
  0.00000000E+00  0.00000000E+00  0.00000000E+00
  0.00000000E+00  0.00000000E+00  0.00000000E+00
  0.00000000E+00  0.00000000E+00  0.00000000E+00
  0.00000000E+00  0.00000000E+00  0.00000000E+00
  0.00000000E+00  0.00000000E+00  0.00000000E+00
  0.00000000E+00  0.00000000E+00  0.00000000E+00
  0.00000000E+00  0.00000000E+00  0.00000000E+00
  0.00000000E+00  0.00000000E+00  0.00000000E+00
  0.00000000E+00  0.00000000E+00  0.00000000E+00
  0.00000000E+00  0.00000000E+00  0.00000000E+00
  0.00000000E+00  0.00000000E+00  0.00000000E+00
  0.00000000E+00  0.00000000E+00  0.00000000E+00
  0.00000000E+00  0.00000000E+00  0.00000000E+00
  0.00000000E+00  0.00000000E+00  0.00000000E+00
  0.00000000E+00  0.00000000E+00  0.00000000E+00
  0.00000000E+00  0.00000000E+00  0.00000000E+00
  0.00000000E+00  0.00000000E+00  0.00000000E+00
  0.00000000E+00  0.00000000E+00  0.00000000E+00
  0.00000000E+00  0.00000000E+00  0.00000000E+00
  0.00000000E+00  0.00000000E+00  0.00000000E+00
  0.00000000E+00  0.00000000E+00  0.00000000E+00
  0.00000000E+00  0.00000000E+00  0.00000000E+00
  0.00000000E+00  0.00000000E+00  0.00000000E+00
  0.00000000E+00  0.00000000E+00  0.00000000E+00
